branch-and-cut/resultados/I080/i080-045.sol
1310
7
2 59
59 64
1 59
3 64
64 6
59 5
59 4
